
        $ From http://www.csplib.org/Problems/prob009/data/helmut.pdf
        $ Problem number 159
        $ Sequence length : 25
        language ESSENCE' 1.0
        letting sizemaster be 532
        letting sizes be sequence(16,18,26,27,33,39,41,50,51,55,69,71,84,87,91,94,132,133,141,143,164,168,169,173,195)
        